Total weight: 945.5577982697769
Route 1: 0 5 3 7 8 10 11 9 6 4 2 1 75 0 
Route 2: 0 13 17 18 19 15 16 14 12 0 
Route 3: 0 25 27 32 33 29 30 28 26 23 22 21 0 
Route 4: 0 20 24 31 35 37 38 39 36 34 0 
Route 5: 0 43 41 42 44 45 46 48 51 50 52 49 47 0 
Route 6: 0 40 57 55 54 53 56 58 60 59 0 
Route 7: 0 69 62 74 81 71 70 73 80 64 68 66 0 
Route 8: 0 65 63 78 76 77 79 72 61 0 
Route 9: 0 67 90 87 86 83 82 84 85 88 89 91 0 
Route 10: 0 98 96 95 94 92 93 97 100 99 0 
